certificates/rado_a11_c5_N90.cnf
c Rad2 upper bound instance: x1 + 11*x2 - x3 = 5, interval [1,90]
p cnf 90 728
1 7 0
-1 -7 0
1 2 18 0
-1 -2 -18 0
1 3 29 0
-1 -3 -29 0
1 4 40 0
-1 -4 -40 0
1 5 51 0
-1 -5 -51 0
1 6 62 0
-1 -6 -62 0
1 7 73 0
-1 -7 -73 0
1 8 84 0
-1 -8 -84 0
1 2 8 0
-1 -2 -8 0
2 19 0
-2 -19 0
2 3 30 0
-2 -3 -30 0
2 4 41 0
-2 -4 -41 0
2 5 52 0
-2 -5 -52 0
2 6 63 0
-2 -6 -63 0
2 7 74 0
-2 -7 -74 0
2 8 85 0
-2 -8 -85 0
1 3 9 0
-1 -3 -9 0
2 3 20 0
-2 -3 -20 0
3 31 0
-3 -31 0
3 4 42 0
-3 -4 -42 0
3 5 53 0
-3 -5 -53 0
3 6 64 0
-3 -6 -64 0
3 7 75 0
-3 -7 -75 0
3 8 86 0
-3 -8 -86 0
1 4 10 0
-1 -4 -10 0
2 4 21 0
-2 -4 -21 0
3 4 32 0
-3 -4 -32 0
4 43 0
-4 -43 0
4 5 54 0
-4 -5 -54 0
4 6 65 0
-4 -6 -65 0
4 7 76 0
-4 -7 -76 0
4 8 87 0
-4 -8 -87 0
1 5 11 0
-1 -5 -11 0
2 5 22 0
-2 -5 -22 0
3 5 33 0
-3 -5 -33 0
4 5 44 0
-4 -5 -44 0
5 55 0
-5 -55 0
5 6 66 0
-5 -6 -66 0
5 7 77 0
-5 -7 -77 0
5 8 88 0
-5 -8 -88 0
1 6 12 0
-1 -6 -12 0
2 6 23 0
-2 -6 -23 0
3 6 34 0
-3 -6 -34 0
4 6 45 0
-4 -6 -45 0
5 6 56 0
-5 -6 -56 0
6 67 0
-6 -67 0
6 7 78 0
-6 -7 -78 0
6 8 89 0
-6 -8 -89 0
1 7 13 0
-1 -7 -13 0
2 7 24 0
-2 -7 -24 0
3 7 35 0
-3 -7 -35 0
4 7 46 0
-4 -7 -46 0
5 7 57 0
-5 -7 -57 0
6 7 68 0
-6 -7 -68 0
7 79 0
-7 -79 0
7 8 90 0
-7 -8 -90 0
1 8 14 0
-1 -8 -14 0
2 8 25 0
-2 -8 -25 0
3 8 36 0
-3 -8 -36 0
4 8 47 0
-4 -8 -47 0
5 8 58 0
-5 -8 -58 0
6 8 69 0
-6 -8 -69 0
7 8 80 0
-7 -8 -80 0
1 9 15 0
-1 -9 -15 0
2 9 26 0
-2 -9 -26 0
3 9 37 0
-3 -9 -37 0
4 9 48 0
-4 -9 -48 0
5 9 59 0
-5 -9 -59 0
6 9 70 0
-6 -9 -70 0
7 9 81 0
-7 -9 -81 0
1 10 16 0
-1 -10 -16 0
2 10 27 0
-2 -10 -27 0
3 10 38 0
-3 -10 -38 0
4 10 49 0
-4 -10 -49 0
5 10 60 0
-5 -10 -60 0
6 10 71 0
-6 -10 -71 0
7 10 82 0
-7 -10 -82 0
1 11 17 0
-1 -11 -17 0
2 11 28 0
-2 -11 -28 0
3 11 39 0
-3 -11 -39 0
4 11 50 0
-4 -11 -50 0
5 11 61 0
-5 -11 -61 0
6 11 72 0
-6 -11 -72 0
7 11 83 0
-7 -11 -83 0
1 12 18 0
-1 -12 -18 0
2 12 29 0
-2 -12 -29 0
3 12 40 0
-3 -12 -40 0
4 12 51 0
-4 -12 -51 0
5 12 62 0
-5 -12 -62 0
6 12 73 0
-6 -12 -73 0
7 12 84 0
-7 -12 -84 0
1 13 19 0
-1 -13 -19 0
2 13 30 0
-2 -13 -30 0
3 13 41 0
-3 -13 -41 0
4 13 52 0
-4 -13 -52 0
5 13 63 0
-5 -13 -63 0
6 13 74 0
-6 -13 -74 0
7 13 85 0
-7 -13 -85 0
1 14 20 0
-1 -14 -20 0
2 14 31 0
-2 -14 -31 0
3 14 42 0
-3 -14 -42 0
4 14 53 0
-4 -14 -53 0
5 14 64 0
-5 -14 -64 0
6 14 75 0
-6 -14 -75 0
7 14 86 0
-7 -14 -86 0
1 15 21 0
-1 -15 -21 0
2 15 32 0
-2 -15 -32 0
3 15 43 0
-3 -15 -43 0
4 15 54 0
-4 -15 -54 0
5 15 65 0
-5 -15 -65 0
6 15 76 0
-6 -15 -76 0
7 15 87 0
-7 -15 -87 0
1 16 22 0
-1 -16 -22 0
2 16 33 0
-2 -16 -33 0
3 16 44 0
-3 -16 -44 0
4 16 55 0
-4 -16 -55 0
5 16 66 0
-5 -16 -66 0
6 16 77 0
-6 -16 -77 0
7 16 88 0
-7 -16 -88 0
1 17 23 0
-1 -17 -23 0
2 17 34 0
-2 -17 -34 0
3 17 45 0
-3 -17 -45 0
4 17 56 0
-4 -17 -56 0
5 17 67 0
-5 -17 -67 0
6 17 78 0
-6 -17 -78 0
7 17 89 0
-7 -17 -89 0
1 18 24 0
-1 -18 -24 0
2 18 35 0
-2 -18 -35 0
3 18 46 0
-3 -18 -46 0
4 18 57 0
-4 -18 -57 0
5 18 68 0
-5 -18 -68 0
6 18 79 0
-6 -18 -79 0
7 18 90 0
-7 -18 -90 0
1 19 25 0
-1 -19 -25 0
2 19 36 0
-2 -19 -36 0
3 19 47 0
-3 -19 -47 0
4 19 58 0
-4 -19 -58 0
5 19 69 0
-5 -19 -69 0
6 19 80 0
-6 -19 -80 0
1 20 26 0
-1 -20 -26 0
2 20 37 0
-2 -20 -37 0
3 20 48 0
-3 -20 -48 0
4 20 59 0
-4 -20 -59 0
5 20 70 0
-5 -20 -70 0
6 20 81 0
-6 -20 -81 0
1 21 27 0
-1 -21 -27 0
2 21 38 0
-2 -21 -38 0
3 21 49 0
-3 -21 -49 0
4 21 60 0
-4 -21 -60 0
5 21 71 0
-5 -21 -71 0
6 21 82 0
-6 -21 -82 0
1 22 28 0
-1 -22 -28 0
2 22 39 0
-2 -22 -39 0
3 22 50 0
-3 -22 -50 0
4 22 61 0
-4 -22 -61 0
5 22 72 0
-5 -22 -72 0
6 22 83 0
-6 -22 -83 0
1 23 29 0
-1 -23 -29 0
2 23 40 0
-2 -23 -40 0
3 23 51 0
-3 -23 -51 0
4 23 62 0
-4 -23 -62 0
5 23 73 0
-5 -23 -73 0
6 23 84 0
-6 -23 -84 0
1 24 30 0
-1 -24 -30 0
2 24 41 0
-2 -24 -41 0
3 24 52 0
-3 -24 -52 0
4 24 63 0
-4 -24 -63 0
5 24 74 0
-5 -24 -74 0
6 24 85 0
-6 -24 -85 0
1 25 31 0
-1 -25 -31 0
2 25 42 0
-2 -25 -42 0
3 25 53 0
-3 -25 -53 0
4 25 64 0
-4 -25 -64 0
5 25 75 0
-5 -25 -75 0
6 25 86 0
-6 -25 -86 0
1 26 32 0
-1 -26 -32 0
2 26 43 0
-2 -26 -43 0
3 26 54 0
-3 -26 -54 0
4 26 65 0
-4 -26 -65 0
5 26 76 0
-5 -26 -76 0
6 26 87 0
-6 -26 -87 0
1 27 33 0
-1 -27 -33 0
2 27 44 0
-2 -27 -44 0
3 27 55 0
-3 -27 -55 0
4 27 66 0
-4 -27 -66 0
5 27 77 0
-5 -27 -77 0
6 27 88 0
-6 -27 -88 0
1 28 34 0
-1 -28 -34 0
2 28 45 0
-2 -28 -45 0
3 28 56 0
-3 -28 -56 0
4 28 67 0
-4 -28 -67 0
5 28 78 0
-5 -28 -78 0
6 28 89 0
-6 -28 -89 0
1 29 35 0
-1 -29 -35 0
2 29 46 0
-2 -29 -46 0
3 29 57 0
-3 -29 -57 0
4 29 68 0
-4 -29 -68 0
5 29 79 0
-5 -29 -79 0
6 29 90 0
-6 -29 -90 0
1 30 36 0
-1 -30 -36 0
2 30 47 0
-2 -30 -47 0
3 30 58 0
-3 -30 -58 0
4 30 69 0
-4 -30 -69 0
5 30 80 0
-5 -30 -80 0
1 31 37 0
-1 -31 -37 0
2 31 48 0
-2 -31 -48 0
3 31 59 0
-3 -31 -59 0
4 31 70 0
-4 -31 -70 0
5 31 81 0
-5 -31 -81 0
1 32 38 0
-1 -32 -38 0
2 32 49 0
-2 -32 -49 0
3 32 60 0
-3 -32 -60 0
4 32 71 0
-4 -32 -71 0
5 32 82 0
-5 -32 -82 0
1 33 39 0
-1 -33 -39 0
2 33 50 0
-2 -33 -50 0
3 33 61 0
-3 -33 -61 0
4 33 72 0
-4 -33 -72 0
5 33 83 0
-5 -33 -83 0
1 34 40 0
-1 -34 -40 0
2 34 51 0
-2 -34 -51 0
3 34 62 0
-3 -34 -62 0
4 34 73 0
-4 -34 -73 0
5 34 84 0
-5 -34 -84 0
1 35 41 0
-1 -35 -41 0
2 35 52 0
-2 -35 -52 0
3 35 63 0
-3 -35 -63 0
4 35 74 0
-4 -35 -74 0
5 35 85 0
-5 -35 -85 0
1 36 42 0
-1 -36 -42 0
2 36 53 0
-2 -36 -53 0
3 36 64 0
-3 -36 -64 0
4 36 75 0
-4 -36 -75 0
5 36 86 0
-5 -36 -86 0
1 37 43 0
-1 -37 -43 0
2 37 54 0
-2 -37 -54 0
3 37 65 0
-3 -37 -65 0
4 37 76 0
-4 -37 -76 0
5 37 87 0
-5 -37 -87 0
1 38 44 0
-1 -38 -44 0
2 38 55 0
-2 -38 -55 0
3 38 66 0
-3 -38 -66 0
4 38 77 0
-4 -38 -77 0
5 38 88 0
-5 -38 -88 0
1 39 45 0
-1 -39 -45 0
2 39 56 0
-2 -39 -56 0
3 39 67 0
-3 -39 -67 0
4 39 78 0
-4 -39 -78 0
5 39 89 0
-5 -39 -89 0
1 40 46 0
-1 -40 -46 0
2 40 57 0
-2 -40 -57 0
3 40 68 0
-3 -40 -68 0
4 40 79 0
-4 -40 -79 0
5 40 90 0
-5 -40 -90 0
1 41 47 0
-1 -41 -47 0
2 41 58 0
-2 -41 -58 0
3 41 69 0
-3 -41 -69 0
4 41 80 0
-4 -41 -80 0
1 42 48 0
-1 -42 -48 0
2 42 59 0
-2 -42 -59 0
3 42 70 0
-3 -42 -70 0
4 42 81 0
-4 -42 -81 0
1 43 49 0
-1 -43 -49 0
2 43 60 0
-2 -43 -60 0
3 43 71 0
-3 -43 -71 0
4 43 82 0
-4 -43 -82 0
1 44 50 0
-1 -44 -50 0
2 44 61 0
-2 -44 -61 0
3 44 72 0
-3 -44 -72 0
4 44 83 0
-4 -44 -83 0
1 45 51 0
-1 -45 -51 0
2 45 62 0
-2 -45 -62 0
3 45 73 0
-3 -45 -73 0
4 45 84 0
-4 -45 -84 0
1 46 52 0
-1 -46 -52 0
2 46 63 0
-2 -46 -63 0
3 46 74 0
-3 -46 -74 0
4 46 85 0
-4 -46 -85 0
1 47 53 0
-1 -47 -53 0
2 47 64 0
-2 -47 -64 0
3 47 75 0
-3 -47 -75 0
4 47 86 0
-4 -47 -86 0
1 48 54 0
-1 -48 -54 0
2 48 65 0
-2 -48 -65 0
3 48 76 0
-3 -48 -76 0
4 48 87 0
-4 -48 -87 0
1 49 55 0
-1 -49 -55 0
2 49 66 0
-2 -49 -66 0
3 49 77 0
-3 -49 -77 0
4 49 88 0
-4 -49 -88 0
1 50 56 0
-1 -50 -56 0
2 50 67 0
-2 -50 -67 0
3 50 78 0
-3 -50 -78 0
4 50 89 0
-4 -50 -89 0
1 51 57 0
-1 -51 -57 0
2 51 68 0
-2 -51 -68 0
3 51 79 0
-3 -51 -79 0
4 51 90 0
-4 -51 -90 0
1 52 58 0
-1 -52 -58 0
2 52 69 0
-2 -52 -69 0
3 52 80 0
-3 -52 -80 0
1 53 59 0
-1 -53 -59 0
2 53 70 0
-2 -53 -70 0
3 53 81 0
-3 -53 -81 0
1 54 60 0
-1 -54 -60 0
2 54 71 0
-2 -54 -71 0
3 54 82 0
-3 -54 -82 0
1 55 61 0
-1 -55 -61 0
2 55 72 0
-2 -55 -72 0
3 55 83 0
-3 -55 -83 0
1 56 62 0
-1 -56 -62 0
2 56 73 0
-2 -56 -73 0
3 56 84 0
-3 -56 -84 0
1 57 63 0
-1 -57 -63 0
2 57 74 0
-2 -57 -74 0
3 57 85 0
-3 -57 -85 0
1 58 64 0
-1 -58 -64 0
2 58 75 0
-2 -58 -75 0
3 58 86 0
-3 -58 -86 0
1 59 65 0
-1 -59 -65 0
2 59 76 0
-2 -59 -76 0
3 59 87 0
-3 -59 -87 0
1 60 66 0
-1 -60 -66 0
2 60 77 0
-2 -60 -77 0
3 60 88 0
-3 -60 -88 0
1 61 67 0
-1 -61 -67 0
2 61 78 0
-2 -61 -78 0
3 61 89 0
-3 -61 -89 0
1 62 68 0
-1 -62 -68 0
2 62 79 0
-2 -62 -79 0
3 62 90 0
-3 -62 -90 0
1 63 69 0
-1 -63 -69 0
2 63 80 0
-2 -63 -80 0
1 64 70 0
-1 -64 -70 0
2 64 81 0
-2 -64 -81 0
1 65 71 0
-1 -65 -71 0
2 65 82 0
-2 -65 -82 0
1 66 72 0
-1 -66 -72 0
2 66 83 0
-2 -66 -83 0
1 67 73 0
-1 -67 -73 0
2 67 84 0
-2 -67 -84 0
1 68 74 0
-1 -68 -74 0
2 68 85 0
-2 -68 -85 0
1 69 75 0
-1 -69 -75 0
2 69 86 0
-2 -69 -86 0
1 70 76 0
-1 -70 -76 0
2 70 87 0
-2 -70 -87 0
1 71 77 0
-1 -71 -77 0
2 71 88 0
-2 -71 -88 0
1 72 78 0
-1 -72 -78 0
2 72 89 0
-2 -72 -89 0
1 73 79 0
-1 -73 -79 0
2 73 90 0
-2 -73 -90 0
1 74 80 0
-1 -74 -80 0
1 75 81 0
-1 -75 -81 0
1 76 82 0
-1 -76 -82 0
1 77 83 0
-1 -77 -83 0
1 78 84 0
-1 -78 -84 0
1 79 85 0
-1 -79 -85 0
1 80 86 0
-1 -80 -86 0
1 81 87 0
-1 -81 -87 0
1 82 88 0
-1 -82 -88 0
1 83 89 0
-1 -83 -89 0
1 84 90 0
-1 -84 -90 0
