certificates/rado_a11_c5_N90.drat
1 -86 -90 0
-86 -90 0
d 1 -86 -90 0
7 84 -87 86 0
84 -87 -90 0
-84 -90 0
d -84 -1 -90 0
-7 -90 0
-90 0
84 0
7 0
-1 0
-79 0
-12 0
85 0
73 0
18 0
6 0
-13 0
-67 0
-78 0
-68 0
-23 0
-24 0
19 0
61 0
72 0
74 0
62 0
29 0
17 0
30 0
-2 0
-80 0
-11 0
-89 0
8 0
63 0
50 0
51 0
40 0
41 0
86 0
28 0
5 0
83 0
-3 0
-69 0
-14 0
-25 0
-55 0
-66 0
-77 0
-88 0
-56 0
-57 0
-58 0
-22 0
-33 0
-34 0
-35 0
-36 0
9 0
20 0
31 0
42 0
52 0
60 0
39 0
75 0
53 0
49 0
38 0
27 0
71 0
82 0
64 0
16 0
-70 0
-81 0
-59 0
-10 0
-21 0
-32 0
76 0
87 0
65 0
4 0
15 0
26 0
0
